<number of tasks>
50

<cycle time>
1000

<order strength>
0.202


<task times>
1 141
2 68
3 576
4 259
5 566
6 138
7 223
8 487
9 115
10 212
11 612
12 296
13 244
14 221
15 153
16 549
17 121
18 508
19 255
20 129
21 249
22 454
23 80
24 112
25 151
26 195
27 101
28 83
29 25
30 130
31 226
32 316
33 181
34 159
35 185
36 69
37 48
38 470
39 582
40 238
41 478
42 150
43 317
44 524
45 380
46 226
47 63
48 78
49 161
50 230

<precedence relations>
1,34
2,34
3,10
3,11
3,12
3,15
4,14
4,25
4,34
5,31
5,47
6,9
6,13
6,14
9,34
10,16
11,17
13,18
14,20
14,23
15,19
16,22
17,23
18,21
18,24
18,25
18,27
18,33
19,38
20,26
21,29
22,28
22,33
23,33
23,50
26,30
26,31
27,32
28,34
29,35
30,36
30,38
31,37
33,45
34,39
34,40
34,41
34,42
35,43
36,44
37,45
40,48
41,49
42,50
43,47
44,46

<end>
